c width = 2, time = 0.000423
s td 98 3 100
b 1 1 2 13
b 2 1 13 24
b 3 1 24 35
b 4 1 35 46
b 5 1 46 57
b 6 1 57 68
b 7 1 68 79
b 8 1 79 90
b 9 1 90 3
b 10 1 3 4
b 11 1 4 5
b 12 1 5 6
b 13 1 6 7
b 14 1 7 8
b 15 1 8 9
b 16 1 9 10
b 17 1 10 11
b 18 1 11 12
b 19 1 12 14
b 20 1 14 15
b 21 1 15 16
b 22 1 16 17
b 23 1 17 18
b 24 1 18 19
b 25 1 19 20
b 26 1 20 21
b 27 1 21 22
b 28 1 22 23
b 29 1 23 25
b 30 1 25 26
b 31 1 26 27
b 32 1 27 28
b 33 1 28 29
b 34 1 29 30
b 35 1 30 31
b 36 1 31 32
b 37 1 32 33
b 38 1 33 34
b 39 1 34 36
b 40 1 36 37
b 41 1 37 38
b 42 1 38 39
b 43 1 39 40
b 44 1 40 41
b 45 1 41 42
b 46 1 42 43
b 47 1 43 44
b 48 1 44 45
b 49 1 45 47
b 50 1 47 48
b 51 1 48 49
b 52 1 49 50
b 53 1 50 51
b 54 1 51 52
b 55 1 52 53
b 56 1 53 54
b 57 1 54 55
b 58 1 55 56
b 59 1 56 58
b 60 1 58 59
b 61 1 59 60
b 62 1 60 61
b 63 1 61 62
b 64 1 62 63
b 65 1 63 64
b 66 1 64 65
b 67 1 65 66
b 68 1 66 67
b 69 1 67 69
b 70 1 69 70
b 71 1 70 71
b 72 1 71 72
b 73 1 72 73
b 74 1 73 74
b 75 1 74 75
b 76 1 75 76
b 77 1 76 77
b 78 1 77 78
b 79 1 78 80
b 80 1 80 81
b 81 1 81 82
b 82 1 82 83
b 83 1 83 84
b 84 1 84 85
b 85 1 85 86
b 86 1 86 87
b 87 1 87 88
b 88 1 88 89
b 89 1 89 91
b 90 1 91 92
b 91 1 92 93
b 92 1 93 94
b 93 1 94 95
b 94 1 95 96
b 95 1 96 97
b 96 1 97 98
b 97 1 98 99
b 98 1 99 100
1 2
2 3
3 4
4 5
5 6
6 7
7 8
8 9
9 10
10 11
11 12
12 13
13 14
14 15
15 16
16 17
17 18
18 19
19 20
20 21
21 22
22 23
23 24
24 25
25 26
26 27
27 28
28 29
29 30
30 31
31 32
32 33
33 34
34 35
35 36
36 37
37 38
38 39
39 40
40 41
41 42
42 43
43 44
44 45
45 46
46 47
47 48
48 49
49 50
50 51
51 52
52 53
53 54
54 55
55 56
56 57
57 58
58 59
59 60
60 61
61 62
62 63
63 64
64 65
65 66
66 67
67 68
68 69
69 70
70 71
71 72
72 73
73 74
74 75
75 76
76 77
77 78
78 79
79 80
80 81
81 82
82 83
83 84
84 85
85 86
86 87
87 88
88 89
89 90
90 91
91 92
92 93
93 94
94 95
95 96
96 97
97 98
